N = 10;
H = 5;
T = 2;

avail = array3d(1..N, 1..H, 1..T, [4, 1, 10, 10, 2, 4, 4, 7, 10, 9, 6, 8, 8, 9, 6, 6, 2, 4, 0, 2, 10, 3, 10, 8, 4, 10, 7, 10, 0, 6, 5, 1, 3, 7, 10, 3, 0, 5, 1, 5, 10, 7, 6, 2, 9, 5, 8, 6, 1, 10, 0, 9, 4, 1, 0, 10, 0, 1, 4, 5, 8, 6, 8, 1, 9, 9, 0, 0, 1, 8, 6, 3, 3, 5, 2, 0, 9, 2, 1, 1, 10, 6, 0, 10, 10, 5, 7, 8, 0, 9, 9, 5, 1, 6, 10, 2, 5, 5, 6, 6]);

r = array2d(1..H, 1..T, [4, 1, 2, 3, 0, 2, 4, 2, 4, 0]);
